c This is UnifRandomKSATGenerator
c uniform random 3-SAT generated instance with: 
c clause length: 3 
c number variables: 10 
c number clauses: 43 
c clause to variable ratio: 4.27 
c random number generator name: SHA1PRNG 
c random number generator provider: SUN 
c random number generator seed: 843249987066378302 
p cnf 10 43
1 3 4 0
-9 4 6 0
8 10 -7 0
9 2 -6 0
-2 7 -8 0
-1 8 4 0
-9 10 -4 0
3 4 7 0
8 3 4 0
-9 1 2 0
-1 -3 -7 0
-9 1 6 0
9 5 -7 0
-1 -9 -7 0
10 5 -7 0
9 3 -6 0
-4 3 7 0
-9 -10 2 0
-2 10 7 0
10 3 -6 0
-1 -6 7 0
9 3 -4 0
-9 -10 3 0
-1 -4 6 0
8 1 5 0
2 10 7 0
-1 -2 6 0
2 3 7 0
-10 -2 -4 0
-9 2 4 0
-2 -4 -8 0
-4 -6 -7 0
-5 6 7 0
1 -4 -8 0
-9 -2 6 0
-2 -3 4 0
5 -8 7 0
-2 -10 -7 0
8 -6 5 0
-1 -5 -7 0
2 -3 -6 0
-1 8 7 0
-3 10 7 0
